min: c;

c = 3.51259932760719 * u1_t7_h4 + 3.20631736021844 * u1_t7_h5 + 3.88105264353095 * u1_t5_h6 + 3.88105264353095 * u1_t7_h6 + 4.40760577254821 * u1_t5_h7 + 4.40760577254821 * u1_t7_h7 + 4.40760577254821 * u1_t9_h7 + 5.27081875554927 * u1_t5_h8 + 5.27081875554927 * u1_t7_h8 + 5.27081875554927 * u1_t9_h8 + 5.27081875554927 * u1_t10_h8 + 4.95461126850178 * u1_t5_h9 + 4.95461126850178 * u1_t7_h9 + 4.95461126850178 * u1_t9_h9 + 4.95461126850178 * u1_t10_h9 + 5.11828694137448 * u1_t5_h10 + 5.11828694137448 * u1_t7_h10 + 5.11828694137448 * u1_t9_h10 + 5.11828694137448 * u1_t10_h10 + 3.68607254376929 * u1_t5_h11 + 3.68607254376929 * u1_t9_h11 + 3.68607254376929 * u1_t10_h11 + 6.03481384967507 * u1_t4_h12 + 6.03481384967507 * u1_t5_h12 + 6.03481384967507 * u1_t8_h12 + 6.03481384967507 * u1_t9_h12 + 6.03481384967507 * u1_t10_h12 + 4.16978087690102 * u1_t4_h13 + 4.16978087690102 * u1_t8_h13 + 4.16978087690102 * u1_t9_h13 + 4.16978087690102 * u1_t10_h13 + 5.67001619895027 * u1_t4_h14 + 5.67001619895027 * u1_t8_h14 + 5.67001619895027 * u1_t9_h14 + 5.67001619895027 * u1_t10_h14 + 6.38198809458221 * u1_t4_h15 + 6.38198809458221 * u1_t8_h15 + 5.45645431168111 * u1_t4_h16 + 5.45645431168111 * u1_t8_h16 + 6.54755212920901 * u1_t4_h17 + 6.54755212920901 * u1_t8_h17 + 6.29481625358662 * u1_t2_h18 + 6.29481625358662 * u1_t4_h18 + 6.29481625358662 * u1_t6_h18 + 6.29481625358662 * u1_t8_h18 + 5.48244901478119 * u1_t2_h19 + 5.48244901478119 * u1_t3_h19 + 5.48244901478119 * u1_t4_h19 + 5.48244901478119 * u1_t6_h19 + 5.56501508603049 * u1_t1_h20 + 5.56501508603049 * u1_t2_h20 + 5.56501508603049 * u1_t3_h20 + 5.56501508603049 * u1_t4_h20 + 5.56501508603049 * u1_t6_h20 + 5.71592868012023 * u1_t1_h21 + 5.71592868012023 * u1_t2_h21 + 5.71592868012023 * u1_t3_h21 + 5.93428214835567 * u1_t1_h22 + 5.93428214835567 * u1_t2_h22 + 5.19025364195251 * u1_t1_h23 + 5.19025364195251 * u1_t2_h23;
0 <= u1_t1_h20 <= 1;
0 <= u1_t1_h21 <= 1;
0 <= u1_t1_h22 <= 1;
0 <= u1_t1_h23 <= 1;
u1_t1_h20 + u1_t1_h21 + u1_t1_h22 + u1_t1_h23 = 1;
0 <= u1_t2_h18 <= 1;
0 <= u1_t2_h19 <= 1;
0 <= u1_t2_h20 <= 1;
0 <= u1_t2_h21 <= 1;
0 <= u1_t2_h22 <= 1;
0 <= u1_t2_h23 <= 1;
u1_t2_h18 + u1_t2_h19 + u1_t2_h20 + u1_t2_h21 + u1_t2_h22 + u1_t2_h23 = 2;
0 <= u1_t3_h19 <= 1;
0 <= u1_t3_h20 <= 1;
0 <= u1_t3_h21 <= 1;
u1_t3_h19 + u1_t3_h20 + u1_t3_h21 = 1;
0 <= u1_t4_h12 <= 1;
0 <= u1_t4_h13 <= 1;
0 <= u1_t4_h14 <= 1;
0 <= u1_t4_h15 <= 1;
0 <= u1_t4_h16 <= 1;
0 <= u1_t4_h17 <= 1;
0 <= u1_t4_h18 <= 1;
0 <= u1_t4_h19 <= 1;
0 <= u1_t4_h20 <= 1;
u1_t4_h12 + u1_t4_h13 + u1_t4_h14 + u1_t4_h15 + u1_t4_h16 + u1_t4_h17 + u1_t4_h18 + u1_t4_h19 + u1_t4_h20 = 3;
0 <= u1_t5_h6 <= 1;
0 <= u1_t5_h7 <= 1;
0 <= u1_t5_h8 <= 1;
0 <= u1_t5_h9 <= 1;
0 <= u1_t5_h10 <= 1;
0 <= u1_t5_h11 <= 1;
0 <= u1_t5_h12 <= 1;
u1_t5_h6 + u1_t5_h7 + u1_t5_h8 + u1_t5_h9 + u1_t5_h10 + u1_t5_h11 + u1_t5_h12 = 3;
0 <= u1_t6_h18 <= 1;
0 <= u1_t6_h19 <= 1;
0 <= u1_t6_h20 <= 1;
u1_t6_h18 + u1_t6_h19 + u1_t6_h20 = 2;
0 <= u1_t7_h4 <= 1;
0 <= u1_t7_h5 <= 1;
0 <= u1_t7_h6 <= 1;
0 <= u1_t7_h7 <= 1;
0 <= u1_t7_h8 <= 1;
0 <= u1_t7_h9 <= 1;
0 <= u1_t7_h10 <= 1;
u1_t7_h4 + u1_t7_h5 + u1_t7_h6 + u1_t7_h7 + u1_t7_h8 + u1_t7_h9 + u1_t7_h10 = 2;
0 <= u1_t8_h12 <= 1;
0 <= u1_t8_h13 <= 1;
0 <= u1_t8_h14 <= 1;
0 <= u1_t8_h15 <= 1;
0 <= u1_t8_h16 <= 1;
0 <= u1_t8_h17 <= 1;
0 <= u1_t8_h18 <= 1;
u1_t8_h12 + u1_t8_h13 + u1_t8_h14 + u1_t8_h15 + u1_t8_h16 + u1_t8_h17 + u1_t8_h18 = 2;
0 <= u1_t9_h7 <= 1;
0 <= u1_t9_h8 <= 1;
0 <= u1_t9_h9 <= 1;
0 <= u1_t9_h10 <= 1;
0 <= u1_t9_h11 <= 1;
0 <= u1_t9_h12 <= 1;
0 <= u1_t9_h13 <= 1;
0 <= u1_t9_h14 <= 1;
u1_t9_h7 + u1_t9_h8 + u1_t9_h9 + u1_t9_h10 + u1_t9_h11 + u1_t9_h12 + u1_t9_h13 + u1_t9_h14 = 3;
0 <= u1_t10_h8 <= 1;
0 <= u1_t10_h9 <= 1;
0 <= u1_t10_h10 <= 1;
0 <= u1_t10_h11 <= 1;
0 <= u1_t10_h12 <= 1;
0 <= u1_t10_h13 <= 1;
0 <= u1_t10_h14 <= 1;
u1_t10_h8 + u1_t10_h9 + u1_t10_h10 + u1_t10_h11 + u1_t10_h12 + u1_t10_h13 + u1_t10_h14 = 3;
